id: 1235
name: ns1905797
group: miplib2010
method: 1

Gurobi 7.0.2 (linux64, Matlab) logging started Fri Apr 20 04:44:06 2018


Gurobi 7.0.2 (linux64) logging started Fri Apr 20 04:44:06 2018

Optimize a model with 51884 rows, 18192 columns and 239700 nonzeros
Coefficient statistics:
  Matrix range     [2e-01, 5e+01]
  Objective range  [3e-04, 7e+00]
  Bounds range     [1e+00, 3e+02]
  RHS range        [1e+00, 1e+02]
Presolve removed 8 rows and 4 columns
Presolve time: 0.05s
Presolved: 51876 rows, 18188 columns, 239156 nonzeros

Iteration    Objective       Primal Inf.    Dual Inf.      Time
       0    7.5920000e+00   8.714956e+01   0.000000e+00      0s
    2768    1.1750980e+01   0.000000e+00   0.000000e+00      0s

Solved in 2768 iterations and 0.34 seconds
Optimal objective  1.175098000e+01
status: OPTIMAL
